\ENCODING=ISO-8859-1
\Problem name: ilog.cplex

Minimize
 obj1: 104319 x1 + 97537 x2 + 90586 x3 + 95021 x4 + 106447 x5 + 93395 x6
       + 96182 x7 + 93381 x8 + 90262 x9 + 106757 x10 + 98748 x11 + 101550 x12
       + 109410 x13 + 96254 x14 + 103659 x15 + 96009 x16 + 100291 x17
       + 97997 x18 + 91950 x19 + 105890 x20 + 90703 x21 + 91870 x22 + 95801 x23
       + 100439 x24 + 102799 x25 + 99454 x26 + 93019 x27 + 102098 x28
       + 105649 x29 + 97990 x30 + 101498 x31 + 94414 x32 + 93031 x33
       + 99591 x34 + 95327 x35 + 91701 x36 + 108022 x37 + 100446 x38
       + 100448 x39 + 95649 x40 + 107546 x41 + 90860 x42 + 99665 x43
       + 103011 x44 + 97268 x45 + 93691 x46 + 104367 x47 + 108056 x48
       + 109996 x49 + 106144 x50 + 93395 x51 + 103642 x52 + 109283 x53
       + 97842 x54 + 98335 x55 + 105570 x56 + 93945 x57 + 106722 x58
       + 108849 x59 + 106299 x60 + 106165 x61 + 93423 x62 + 105603 x63
       + 102917 x64 + 92911 x65 + 107608 x66 + 100942 x67 + 93188 x68
       + 103636 x69 + 96916 x70 + 95044 x71 + 104781 x72 + 107205 x73
       + 93773 x74 + 94251 x75 + 109132 x76 + 109716 x77 + 105503 x78
       + 92100 x79 + 103750 x80 + 90770 x81 + 90109 x82 + 107976 x83
       + 90147 x84 + 104127 x85 + 100827 x86 + 101003 x87 + 94144 x88
       + 102727 x89 + 95061 x90 + 96386 x91 + 94835 x92 + 95122 x93 + 93630 x94
       + 96232 x95 + 99186 x96 + 108042 x97 + 92224 x98 + 92408 x99
       + 105500 x100 + 98102 x101 + 108525 x102 + 95077 x103 + 100849 x104
       + 104599 x105 + 95698 x106 + 97312 x107 + 95146 x108 + 104898 x109
       + 105730 x110 + 93536 x111 + 107617 x112 + 104073 x113 + 104624 x114
       + 97530 x115 + 90240 x116 + 101275 x117 + 105458 x118 + 104374 x119
       + 97109 x120 + 108682 x121 + 95261 x122 + 105666 x123 + 101167 x124
       + 95525 x125 + 95135 x126 + 102705 x127 + 101750 x128 + 97457 x129
       + 103854 x130 + 108868 x131 + 97164 x132 + 100852 x133 + 97050 x134
       + 93758 x135 + 96956 x136 + 99404 x137 + 90700 x138 + 98719 x139
       + 92787 x140 + 101808 x141 + 92292 x142 + 108649 x143 + 104595 x144
       + 103554 x145 + 92324 x146 + 92062 x147 + 90613 x148 + 109452 x149
       + 103929 x150 + 105302 x151 + 91243 x152 + 98508 x153 + 95479 x154
       + 97156 x155 + 101646 x156 + 103428 x157 + 98712 x158 + 96071 x159
       + 103405 x160 + 93288 x161 + 93195 x162 + 93769 x163 + 91723 x164
       + 99797 x165 + 106887 x166 + 96225 x167 + 91359 x168 + 95127 x169
       + 92116 x170 + 95865 x171 + 101875 x172 + 92392 x173 + 96440 x174
       + 107243 x175 + 90740 x176 + 98647 x177 + 108689 x178 + 102562 x179
       + 101471 x180 + 103203 x181 + 105872 x182 + 96795 x183 + 108079 x184
       + 97976 x185 + 94052 x186 + 92613 x187 + 92889 x188 + 102483 x189
       + 101547 x190 + 94390 x191 + 106372 x192 + 92153 x193 + 95519 x194
       + 90993 x195 + 97537 x196 + 97189 x197 + 93193 x198 + 101743 x199
       + 91165 x200 + 92523 x201 + 96747 x202 + 95139 x203 + 104570 x204
       + 106652 x205 + 90366 x206 + 108845 x207 + 97069 x208 + 107935 x209
       + 101405 x210 + 106581 x211 + 108378 x212 + 91160 x213 + 102575 x214
       + 94560 x215 + 92505 x216 + 102054 x217 + 102759 x218 + 107822 x219
       + 109634 x220 + 102910 x221 + 100296 x222 + 105116 x223 + 100127 x224
       + 98601 x225 + 94480 x226 + 99886 x227 + 91915 x228 + 108998 x229
       + 108557 x230 + 104490 x231 + 105446 x232 + 91179 x233 + 90610 x234
       + 94945 x235 + 98758 x236 + 102783 x237 + 107529 x238 + 94286 x239
       + 99367 x240 + 99350 x241 + 104945 x242 + 99584 x243 + 105665 x244
       + 105332 x245 + 94883 x246 + 98674 x247 + 105302 x248 + 96054 x249
       + 100576 x250 + 107274 x251 + 90922 x252 + 106777 x253 + 106735 x254
       + 102574 x255 + 101803 x256 + 91974 x257 + 103619 x258 + 91682 x259
       + 107282 x260 + 95611 x261 + 99035 x262 + 100128 x263 + 105686 x264
       + 101766 x265 + 104996 x266 + 105595 x267 + 90483 x268 + 107408 x269
       + 100461 x270 + 94109 x271 + 107080 x272 + 93893 x273 + 105741 x274
       + 100962 x275 + 100747 x276 + 94026 x277 + 109097 x278 + 99229 x279
       + 93828 x280 + 97533 x281 + 101478 x282 + 95079 x283 + 108688 x284
       + 109351 x285 + 101511 x286 + 100920 x287 + 91781 x288 + 92338 x289
       + 109559 x290 + 104959 x291 + 93766 x292 + 108874 x293 + 97044 x294
       + 98911 x295 + 100791 x296 + 104244 x297 + 95209 x298 + 104340 x299
       + 193445 x300 + 21391 x301 + 19091 x302 + 21298 x303 + 19107 x304
       + 18239 x305 + 19639 x306 + 19186 x307 + 18210 x308 + 21442 x309
       + 21428 x310 + 18369 x311 + 21152 x312 + 18002 x313 + 18901 x314
       + 21039 x315 + 19561 x316 + 21479 x317 + 20369 x318 + 21995 x319
       + 21255 x320 + 18043 x321 + 18915 x322 + 20761 x323 + 19115 x324
       + 21481 x325 + 21068 x326 + 18580 x327 + 18239 x328 + 18219 x329
       + 19458 x330 + 20267 x331 + 19039 x332 + 18425 x333 + 18917 x334
       + 18610 x335 + 18354 x336 + 18562 x337 + 20021 x338 + 21007 x339
       + 20360 x340 + 20519 x341 + 18023 x342 + 20483 x343 + 20220 x344
       + 18531 x345 + 20441 x346 + 19960 x347 + 19926 x348 + 21568 x349
       + 19257 x350 + 21860 x351 + 21619 x352 + 21729 x353 + 21750 x354
       + 18630 x355 + 18993 x356 + 20397 x357 + 19419 x358 + 19702 x359
       + 28379 x360
Subject To
 c1:   - x6 + x13 - x14 + x18 - x19 + x23 + x25 - x26 - x44 - x45 - x49  = 0
 c2:   - x66 + x73 - x74 + x78 - x79 + x83 + x85 - x86 - x104 - x105 - x109
        = 0
 c3:   - x126 + x133 - x134 + x138 - x139 + x143 + x145 - x146 - x164 - x165
       - x169  = 0
 c4:   - x186 + x193 - x194 + x198 - x199 + x203 + x205 - x206 - x224 - x225
       - x229  = 0
 c5:   - x246 + x253 - x254 + x258 - x259 + x263 + x265 - x266 - x284 - x285
       - x289  = 0
 c6:   x2 - x11 + x24 - x27 + x37 - x46 - x58  = 0
 c7:   x62 - x71 + x84 - x87 + x97 - x106 - x118  = 0
 c8:   x122 - x131 + x144 - x147 + x157 - x166 - x178  = 0
 c9:   x182 - x191 + x204 - x207 + x217 - x226 - x238  = 0
 c10:  x242 - x251 + x264 - x267 + x277 - x286 - x298  = 1
 c11:  x4 + x12 + x26 + x30 + x39 - x41 - x43 + x48 + x50 + x58 + x60  = 0
 c12:  x64 + x72 + x86 + x90 + x99 - x101 - x103 + x108 + x110 + x118 + x120
        = 1
 c13:  x124 + x132 + x146 + x150 + x159 - x161 - x163 + x168 + x170 + x178
       + x180  = 0
 c14:  x184 + x192 + x206 + x210 + x219 - x221 - x223 + x228 + x230 + x238
       + x240  = 0
 c15:  x244 + x252 + x266 + x270 + x279 - x281 - x283 + x288 + x290 + x298
       + x300  = 0
 c16:  x14 + x16 - x33 - x36 + x43 - x55 + x56 - x59  = 0
 c17:  x74 + x76 - x93 - x96 + x103 - x115 + x116 - x119  = 0
 c18:  x134 + x136 - x153 - x156 + x163 - x175 + x176 - x179  = 1
 c19:  x194 + x196 - x213 - x216 + x223 - x235 + x236 - x239  = 0
 c20:  x254 + x256 - x273 - x276 + x283 - x295 + x296 - x299  = 0
 c21:  x11 - x12 + x15 - x31 - x34 + x36 - x37  = 0
 c22:  x71 - x72 + x75 - x91 - x94 + x96 - x97  = 0
 c23:  x131 - x132 + x135 - x151 - x154 + x156 - x157  = 0
 c24:  x191 - x192 + x195 - x211 - x214 + x216 - x217  = 0
 c25:  x251 - x252 + x255 - x271 - x274 + x276 - x277  = 0
 c26:  - x3 - x10 + x28 - x38 + x42 - x50  = 0
 c27:  - x63 - x70 + x88 - x98 + x102 - x110  = 0
 c28:  - x123 - x130 + x148 - x158 + x162 - x170  = 0
 c29:  - x183 - x190 + x208 - x218 + x222 - x230  = 0
 c30:  - x243 - x250 + x268 - x278 + x282 - x290  = 0
 c31:  x5 - x9 + x10 - x21 + x27 + x29 + x45 + x51 + x52 + x55 - x57  = 0
 c32:  x65 - x69 + x70 - x81 + x87 + x89 + x105 + x111 + x112 + x115 - x117
        = 0
 c33:  x125 - x129 + x130 - x141 + x147 + x149 + x165 + x171 + x172 + x175
       - x177  = 0
 c34:  x185 - x189 + x190 - x201 + x207 + x209 + x225 + x231 + x232 + x235
       - x237  = 0
 c35:  x245 - x249 + x250 - x261 + x267 + x269 + x285 + x291 + x292 + x295
       - x297  = 0
 c36:  x1 - x4 - x17 - x18 + x31 + x35 - x40 + x41 - x53 + x54  = 1
 c37:  x61 - x64 - x77 - x78 + x91 + x95 - x100 + x101 - x113 + x114  = 0
 c38:  x121 - x124 - x137 - x138 + x151 + x155 - x160 + x161 - x173 + x174  = 0
 c39:  x181 - x184 - x197 - x198 + x211 + x215 - x220 + x221 - x233 + x234  = 0
 c40:  x241 - x244 - x257 - x258 + x271 + x275 - x280 + x281 - x293 + x294  = 0
 c41:  - x7 + x17 + x20 - x22 - x32 + x38 - x39 + x47  = 0
 c42:  - x67 + x77 + x80 - x82 - x92 + x98 - x99 + x107  = -1
 c43:  - x127 + x137 + x140 - x142 - x152 + x158 - x159 + x167  = 0
 c44:  - x187 + x197 + x200 - x202 - x212 + x218 - x219 + x227  = 1
 c45:  - x247 + x257 + x260 - x262 - x272 + x278 - x279 + x287  = 0
 c46:  x7 + x9 - x15 - x16 - x23 - x52 - x54  = 0
 c47:  x67 + x69 - x75 - x76 - x83 - x112 - x114  = 0
 c48:  x127 + x129 - x135 - x136 - x143 - x172 - x174  = 0
 c49:  x187 + x189 - x195 - x196 - x203 - x232 - x234  = -1
 c50:  x247 + x249 - x255 - x256 - x263 - x292 - x294  = 0
 c51:  x3 - x8 - x13 + x19 + x21 + x22 - x29 + x33 - x42 + x53 - x60  = 0
 c52:  x63 - x68 - x73 + x79 + x81 + x82 - x89 + x93 - x102 + x113 - x120  = 0
 c53:  x123 - x128 - x133 + x139 + x141 + x142 - x149 + x153 - x162 + x173
       - x180  = 0
 c54:  x183 - x188 - x193 + x199 + x201 + x202 - x209 + x213 - x222 + x233
       - x240  = 0
 c55:  x243 - x248 - x253 + x259 + x261 + x262 - x269 + x273 - x282 + x293
       - x300  = -1
 c56:  - x2 + x6 - x25 + x32 - x35 + x46 - x47 - x56  = 0
 c57:  - x62 + x66 - x85 + x92 - x95 + x106 - x107 - x116  = 0
 c58:  - x122 + x126 - x145 + x152 - x155 + x166 - x167 - x176  = 0
 c59:  - x182 + x186 - x205 + x212 - x215 + x226 - x227 - x236  = 0
 c60:  - x242 + x246 - x265 + x272 - x275 + x286 - x287 - x296  = 0
 c61:  - x20 - x24 - x28 + x44 - x48  = 0
 c62:  - x80 - x84 - x88 + x104 - x108  = 0
 c63:  - x140 - x144 - x148 + x164 - x168  = 0
 c64:  - x200 - x204 - x208 + x224 - x228  = 0
 c65:  - x260 - x264 - x268 + x284 - x288  = 0
 c66:  - x5 + x8 + x34 + x40 + x49 + x57  = -1
 c67:  - x65 + x68 + x94 + x100 + x109 + x117  = 0
 c68:  - x125 + x128 + x154 + x160 + x169 + x177  = 0
 c69:  - x185 + x188 + x214 + x220 + x229 + x237  = 0
 c70:  - x245 + x248 + x274 + x280 + x289 + x297  = 0
 c71:  - x1 - x30 - x51 + x59  = 0
 c72:  - x61 - x90 - x111 + x119  = 0
 c73:  - x121 - x150 - x171 + x179  = -1
 c74:  - x181 - x210 - x231 + x239  = 0
 c75:  - x241 - x270 - x291 + x299  = 0
 c76:  4 x1 + 4 x61 + 4 x121 + 4 x181 + 4 x241 - 11 x301 <= 0
 c77:  4 x2 + 4 x62 + 4 x122 + 4 x182 + 4 x242 - 11 x302 <= 0
 c78:  4 x3 + 4 x63 + 4 x123 + 4 x183 + 4 x243 - 10 x303 <= 0
 c79:  4 x4 + 4 x64 + 4 x124 + 4 x184 + 4 x244 - 11 x304 <= 0
 c80:  4 x5 + 4 x65 + 4 x125 + 4 x185 + 4 x245 - 10 x305 <= 0
 c81:  4 x6 + 4 x66 + 4 x126 + 4 x186 + 4 x246 - 10 x306 <= 0
 c82:  4 x7 + 4 x67 + 4 x127 + 4 x187 + 4 x247 - 9 x307 <= 0
 c83:  4 x8 + 4 x68 + 4 x128 + 4 x188 + 4 x248 - 10 x308 <= 0
 c84:  4 x9 + 4 x69 + 4 x129 + 4 x189 + 4 x249 - 10 x309 <= 0
 c85:  4 x10 + 4 x70 + 4 x130 + 4 x190 + 4 x250 - 10 x310 <= 0
 c86:  4 x11 + 4 x71 + 4 x131 + 4 x191 + 4 x251 - 10 x311 <= 0
 c87:  4 x12 + 4 x72 + 4 x132 + 4 x192 + 4 x252 - 10 x312 <= 0
 c88:  4 x13 + 4 x73 + 4 x133 + 4 x193 + 4 x253 - 9 x313 <= 0
 c89:  4 x14 + 4 x74 + 4 x134 + 4 x194 + 4 x254 - 10 x314 <= 0
 c90:  4 x15 + 4 x75 + 4 x135 + 4 x195 + 4 x255 - 11 x315 <= 0
 c91:  4 x16 + 4 x76 + 4 x136 + 4 x196 + 4 x256 - 10 x316 <= 0
 c92:  4 x17 + 4 x77 + 4 x137 + 4 x197 + 4 x257 - 10 x317 <= 0
 c93:  4 x18 + 4 x78 + 4 x138 + 4 x198 + 4 x258 - 9 x318 <= 0
 c94:  4 x19 + 4 x79 + 4 x139 + 4 x199 + 4 x259 - 9 x319 <= 0
 c95:  4 x20 + 4 x80 + 4 x140 + 4 x200 + 4 x260 - 9 x320 <= 0
 c96:  4 x21 + 4 x81 + 4 x141 + 4 x201 + 4 x261 - 9 x321 <= 0
 c97:  4 x22 + 4 x82 + 4 x142 + 4 x202 + 4 x262 - 10 x322 <= 0
 c98:  4 x23 + 4 x83 + 4 x143 + 4 x203 + 4 x263 - 10 x323 <= 0
 c99:  4 x24 + 4 x84 + 4 x144 + 4 x204 + 4 x264 - 9 x324 <= 0
 c100: 4 x25 + 4 x85 + 4 x145 + 4 x205 + 4 x265 - 10 x325 <= 0
 c101: 4 x26 + 4 x86 + 4 x146 + 4 x206 + 4 x266 - 10 x326 <= 0
 c102: 4 x27 + 4 x87 + 4 x147 + 4 x207 + 4 x267 - 10 x327 <= 0
 c103: 4 x28 + 4 x88 + 4 x148 + 4 x208 + 4 x268 - 10 x328 <= 0
 c104: 4 x29 + 4 x89 + 4 x149 + 4 x209 + 4 x269 - 9 x329 <= 0
 c105: 4 x30 + 4 x90 + 4 x150 + 4 x210 + 4 x270 - 10 x330 <= 0
 c106: 4 x31 + 4 x91 + 4 x151 + 4 x211 + 4 x271 - 10 x331 <= 0
 c107: 4 x32 + 4 x92 + 4 x152 + 4 x212 + 4 x272 - 11 x332 <= 0
 c108: 4 x33 + 4 x93 + 4 x153 + 4 x213 + 4 x273 - 11 x333 <= 0
 c109: 4 x34 + 4 x94 + 4 x154 + 4 x214 + 4 x274 - 11 x334 <= 0
 c110: 4 x35 + 4 x95 + 4 x155 + 4 x215 + 4 x275 - 10 x335 <= 0
 c111: 4 x36 + 4 x96 + 4 x156 + 4 x216 + 4 x276 - 10 x336 <= 0
 c112: 4 x37 + 4 x97 + 4 x157 + 4 x217 + 4 x277 - 11 x337 <= 0
 c113: 4 x38 + 4 x98 + 4 x158 + 4 x218 + 4 x278 - 10 x338 <= 0
 c114: 4 x39 + 4 x99 + 4 x159 + 4 x219 + 4 x279 - 9 x339 <= 0
 c115: 4 x40 + 4 x100 + 4 x160 + 4 x220 + 4 x280 - 11 x340 <= 0
 c116: 4 x41 + 4 x101 + 4 x161 + 4 x221 + 4 x281 - 10 x341 <= 0
 c117: 4 x42 + 4 x102 + 4 x162 + 4 x222 + 4 x282 - 10 x342 <= 0
 c118: 4 x43 + 4 x103 + 4 x163 + 4 x223 + 4 x283 - 10 x343 <= 0
 c119: 4 x44 + 4 x104 + 4 x164 + 4 x224 + 4 x284 - 10 x344 <= 0
 c120: 4 x45 + 4 x105 + 4 x165 + 4 x225 + 4 x285 - 9 x345 <= 0
 c121: 4 x46 + 4 x106 + 4 x166 + 4 x226 + 4 x286 - 10 x346 <= 0
 c122: 4 x47 + 4 x107 + 4 x167 + 4 x227 + 4 x287 - 9 x347 <= 0
 c123: 4 x48 + 4 x108 + 4 x168 + 4 x228 + 4 x288 - 11 x348 <= 0
 c124: 4 x49 + 4 x109 + 4 x169 + 4 x229 + 4 x289 - 11 x349 <= 0
 c125: 4 x50 + 4 x110 + 4 x170 + 4 x230 + 4 x290 - 9 x350 <= 0
 c126: 4 x51 + 4 x111 + 4 x171 + 4 x231 + 4 x291 - 9 x351 <= 0
 c127: 4 x52 + 4 x112 + 4 x172 + 4 x232 + 4 x292 - 10 x352 <= 0
 c128: 4 x53 + 4 x113 + 4 x173 + 4 x233 + 4 x293 - 9 x353 <= 0
 c129: 4 x54 + 4 x114 + 4 x174 + 4 x234 + 4 x294 - 9 x354 <= 0
 c130: 4 x55 + 4 x115 + 4 x175 + 4 x235 + 4 x295 - 10 x355 <= 0
 c131: 4 x56 + 4 x116 + 4 x176 + 4 x236 + 4 x296 - 10 x356 <= 0
 c132: 4 x57 + 4 x117 + 4 x177 + 4 x237 + 4 x297 - 10 x357 <= 0
 c133: 4 x58 + 4 x118 + 4 x178 + 4 x238 + 4 x298 - 10 x358 <= 0
 c134: 4 x59 + 4 x119 + 4 x179 + 4 x239 + 4 x299 - 10 x359 <= 0
 c135: 4 x60 + 4 x120 + 4 x180 + 4 x240 + 4 x300 - 14 x360 <= 0
Bounds
 0 <= x1 <= 1
 0 <= x2 <= 1
 0 <= x3 <= 1
 0 <= x4 <= 1
 0 <= x5 <= 1
 0 <= x6 <= 1
 0 <= x7 <= 1
 0 <= x8 <= 1
 0 <= x9 <= 1
 0 <= x10 <= 1
 0 <= x11 <= 1
 0 <= x12 <= 1
 0 <= x13 <= 1
 0 <= x14 <= 1
 0 <= x15 <= 1
 0 <= x16 <= 1
 0 <= x17 <= 1
 0 <= x18 <= 1
 0 <= x19 <= 1
 0 <= x20 <= 1
 0 <= x21 <= 1
 0 <= x22 <= 1
 0 <= x23 <= 1
 0 <= x24 <= 1
 0 <= x25 <= 1
 0 <= x26 <= 1
 0 <= x27 <= 1
 0 <= x28 <= 1
 0 <= x29 <= 1
 0 <= x30 <= 1
 0 <= x31 <= 1
 0 <= x32 <= 1
 0 <= x33 <= 1
 0 <= x34 <= 1
 0 <= x35 <= 1
 0 <= x36 <= 1
 0 <= x37 <= 1
 0 <= x38 <= 1
 0 <= x39 <= 1
 0 <= x40 <= 1
 0 <= x41 <= 1
 0 <= x42 <= 1
 0 <= x43 <= 1
 0 <= x44 <= 1
 0 <= x45 <= 1
 0 <= x46 <= 1
 0 <= x47 <= 1
 0 <= x48 <= 1
 0 <= x49 <= 1
 0 <= x50 <= 1
 0 <= x51 <= 1
 0 <= x52 <= 1
 0 <= x53 <= 1
 0 <= x54 <= 1
 0 <= x55 <= 1
 0 <= x56 <= 1
 0 <= x57 <= 1
 0 <= x58 <= 1
 0 <= x59 <= 1
 0 <= x60 <= 1
 0 <= x61 <= 1
 0 <= x62 <= 1
 0 <= x63 <= 1
 0 <= x64 <= 1
 0 <= x65 <= 1
 0 <= x66 <= 1
 0 <= x67 <= 1
 0 <= x68 <= 1
 0 <= x69 <= 1
 0 <= x70 <= 1
 0 <= x71 <= 1
 0 <= x72 <= 1
 0 <= x73 <= 1
 0 <= x74 <= 1
 0 <= x75 <= 1
 0 <= x76 <= 1
 0 <= x77 <= 1
 0 <= x78 <= 1
 0 <= x79 <= 1
 0 <= x80 <= 1
 0 <= x81 <= 1
 0 <= x82 <= 1
 0 <= x83 <= 1
 0 <= x84 <= 1
 0 <= x85 <= 1
 0 <= x86 <= 1
 0 <= x87 <= 1
 0 <= x88 <= 1
 0 <= x89 <= 1
 0 <= x90 <= 1
 0 <= x91 <= 1
 0 <= x92 <= 1
 0 <= x93 <= 1
 0 <= x94 <= 1
 0 <= x95 <= 1
 0 <= x96 <= 1
 0 <= x97 <= 1
 0 <= x98 <= 1
 0 <= x99 <= 1
 0 <= x100 <= 1
 0 <= x101 <= 1
 0 <= x102 <= 1
 0 <= x103 <= 1
 0 <= x104 <= 1
 0 <= x105 <= 1
 0 <= x106 <= 1
 0 <= x107 <= 1
 0 <= x108 <= 1
 0 <= x109 <= 1
 0 <= x110 <= 1
 0 <= x111 <= 1
 0 <= x112 <= 1
 0 <= x113 <= 1
 0 <= x114 <= 1
 0 <= x115 <= 1
 0 <= x116 <= 1
 0 <= x117 <= 1
 0 <= x118 <= 1
 0 <= x119 <= 1
 0 <= x120 <= 1
 0 <= x121 <= 1
 0 <= x122 <= 1
 0 <= x123 <= 1
 0 <= x124 <= 1
 0 <= x125 <= 1
 0 <= x126 <= 1
 0 <= x127 <= 1
 0 <= x128 <= 1
 0 <= x129 <= 1
 0 <= x130 <= 1
 0 <= x131 <= 1
 0 <= x132 <= 1
 0 <= x133 <= 1
 0 <= x134 <= 1
 0 <= x135 <= 1
 0 <= x136 <= 1
 0 <= x137 <= 1
 0 <= x138 <= 1
 0 <= x139 <= 1
 0 <= x140 <= 1
 0 <= x141 <= 1
 0 <= x142 <= 1
 0 <= x143 <= 1
 0 <= x144 <= 1
 0 <= x145 <= 1
 0 <= x146 <= 1
 0 <= x147 <= 1
 0 <= x148 <= 1
 0 <= x149 <= 1
 0 <= x150 <= 1
 0 <= x151 <= 1
 0 <= x152 <= 1
 0 <= x153 <= 1
 0 <= x154 <= 1
 0 <= x155 <= 1
 0 <= x156 <= 1
 0 <= x157 <= 1
 0 <= x158 <= 1
 0 <= x159 <= 1
 0 <= x160 <= 1
 0 <= x161 <= 1
 0 <= x162 <= 1
 0 <= x163 <= 1
 0 <= x164 <= 1
 0 <= x165 <= 1
 0 <= x166 <= 1
 0 <= x167 <= 1
 0 <= x168 <= 1
 0 <= x169 <= 1
 0 <= x170 <= 1
 0 <= x171 <= 1
 0 <= x172 <= 1
 0 <= x173 <= 1
 0 <= x174 <= 1
 0 <= x175 <= 1
 0 <= x176 <= 1
 0 <= x177 <= 1
 0 <= x178 <= 1
 0 <= x179 <= 1
 0 <= x180 <= 1
 0 <= x181 <= 1
 0 <= x182 <= 1
 0 <= x183 <= 1
 0 <= x184 <= 1
 0 <= x185 <= 1
 0 <= x186 <= 1
 0 <= x187 <= 1
 0 <= x188 <= 1
 0 <= x189 <= 1
 0 <= x190 <= 1
 0 <= x191 <= 1
 0 <= x192 <= 1
 0 <= x193 <= 1
 0 <= x194 <= 1
 0 <= x195 <= 1
 0 <= x196 <= 1
 0 <= x197 <= 1
 0 <= x198 <= 1
 0 <= x199 <= 1
 0 <= x200 <= 1
 0 <= x201 <= 1
 0 <= x202 <= 1
 0 <= x203 <= 1
 0 <= x204 <= 1
 0 <= x205 <= 1
 0 <= x206 <= 1
 0 <= x207 <= 1
 0 <= x208 <= 1
 0 <= x209 <= 1
 0 <= x210 <= 1
 0 <= x211 <= 1
 0 <= x212 <= 1
 0 <= x213 <= 1
 0 <= x214 <= 1
 0 <= x215 <= 1
 0 <= x216 <= 1
 0 <= x217 <= 1
 0 <= x218 <= 1
 0 <= x219 <= 1
 0 <= x220 <= 1
 0 <= x221 <= 1
 0 <= x222 <= 1
 0 <= x223 <= 1
 0 <= x224 <= 1
 0 <= x225 <= 1
 0 <= x226 <= 1
 0 <= x227 <= 1
 0 <= x228 <= 1
 0 <= x229 <= 1
 0 <= x230 <= 1
 0 <= x231 <= 1
 0 <= x232 <= 1
 0 <= x233 <= 1
 0 <= x234 <= 1
 0 <= x235 <= 1
 0 <= x236 <= 1
 0 <= x237 <= 1
 0 <= x238 <= 1
 0 <= x239 <= 1
 0 <= x240 <= 1
 0 <= x241 <= 1
 0 <= x242 <= 1
 0 <= x243 <= 1
 0 <= x244 <= 1
 0 <= x245 <= 1
 0 <= x246 <= 1
 0 <= x247 <= 1
 0 <= x248 <= 1
 0 <= x249 <= 1
 0 <= x250 <= 1
 0 <= x251 <= 1
 0 <= x252 <= 1
 0 <= x253 <= 1
 0 <= x254 <= 1
 0 <= x255 <= 1
 0 <= x256 <= 1
 0 <= x257 <= 1
 0 <= x258 <= 1
 0 <= x259 <= 1
 0 <= x260 <= 1
 0 <= x261 <= 1
 0 <= x262 <= 1
 0 <= x263 <= 1
 0 <= x264 <= 1
 0 <= x265 <= 1
 0 <= x266 <= 1
 0 <= x267 <= 1
 0 <= x268 <= 1
 0 <= x269 <= 1
 0 <= x270 <= 1
 0 <= x271 <= 1
 0 <= x272 <= 1
 0 <= x273 <= 1
 0 <= x274 <= 1
 0 <= x275 <= 1
 0 <= x276 <= 1
 0 <= x277 <= 1
 0 <= x278 <= 1
 0 <= x279 <= 1
 0 <= x280 <= 1
 0 <= x281 <= 1
 0 <= x282 <= 1
 0 <= x283 <= 1
 0 <= x284 <= 1
 0 <= x285 <= 1
 0 <= x286 <= 1
 0 <= x287 <= 1
 0 <= x288 <= 1
 0 <= x289 <= 1
 0 <= x290 <= 1
 0 <= x291 <= 1
 0 <= x292 <= 1
 0 <= x293 <= 1
 0 <= x294 <= 1
 0 <= x295 <= 1
 0 <= x296 <= 1
 0 <= x297 <= 1
 0 <= x298 <= 1
 0 <= x299 <= 1
 0 <= x300 <= 1
 0 <= x301 <= 1
 0 <= x302 <= 1
 0 <= x303 <= 1
 0 <= x304 <= 1
 0 <= x305 <= 1
 0 <= x306 <= 1
 0 <= x307 <= 1
 0 <= x308 <= 1
 0 <= x309 <= 1
 0 <= x310 <= 1
 0 <= x311 <= 1
 0 <= x312 <= 1
 0 <= x313 <= 1
 0 <= x314 <= 1
 0 <= x315 <= 1
 0 <= x316 <= 1
 0 <= x317 <= 1
 0 <= x318 <= 1
 0 <= x319 <= 1
 0 <= x320 <= 1
 0 <= x321 <= 1
 0 <= x322 <= 1
 0 <= x323 <= 1
 0 <= x324 <= 1
 0 <= x325 <= 1
 0 <= x326 <= 1
 0 <= x327 <= 1
 0 <= x328 <= 1
 0 <= x329 <= 1
 0 <= x330 <= 1
 0 <= x331 <= 1
 0 <= x332 <= 1
 0 <= x333 <= 1
 0 <= x334 <= 1
 0 <= x335 <= 1
 0 <= x336 <= 1
 0 <= x337 <= 1
 0 <= x338 <= 1
 0 <= x339 <= 1
 0 <= x340 <= 1
 0 <= x341 <= 1
 0 <= x342 <= 1
 0 <= x343 <= 1
 0 <= x344 <= 1
 0 <= x345 <= 1
 0 <= x346 <= 1
 0 <= x347 <= 1
 0 <= x348 <= 1
 0 <= x349 <= 1
 0 <= x350 <= 1
 0 <= x351 <= 1
 0 <= x352 <= 1
 0 <= x353 <= 1
 0 <= x354 <= 1
 0 <= x355 <= 1
 0 <= x356 <= 1
 0 <= x357 <= 1
 0 <= x358 <= 1
 0 <= x359 <= 1
 0 <= x360 <= 1
Binaries
 x301  x302  x303  x304  x305  x306  x307  x308  x309  x310  x311  x312  x313 
 x314  x315  x316  x317  x318  x319  x320  x321  x322  x323  x324  x325  x326 
 x327  x328  x329  x330  x331  x332  x333  x334  x335  x336  x337  x338  x339 
 x340  x341  x342  x343  x344  x345  x346  x347  x348  x349  x350  x351  x352 
 x353  x354  x355  x356  x357  x358  x359  x360 
End
